# Solution for model dripping_srl_ilp
# Objective value = 5.1997441429674112e+00
Z_28_0_0 0
Z_28_0_1 0
Z_28_0_2 1
Z_28_0_3 0
Z_28_0_4 0
Z_286_5_0 0
Z_286_5_1 0
Z_286_5_2 0
Z_286_5_3 0
Z_286_5_4 1
Z_286_0_0 0
Z_286_0_1 0
Z_286_0_2 0
Z_286_0_3 0
Z_286_0_4 1
Z_286_3_0 0
Z_286_3_1 0
Z_286_3_2 0
Z_286_3_3 0
Z_286_3_4 1
Z_286_1_0 0
Z_286_1_1 0
Z_286_1_2 0
Z_286_1_3 0
Z_286_1_4 1
Z_286_6_0 0
Z_286_6_1 0
Z_286_6_2 0
Z_286_6_3 0
Z_286_6_4 1
Z_286_2_0 0
Z_286_2_1 0
Z_286_2_2 1
Z_286_2_3 0
Z_286_2_4 0
Z_188_0_0 0
Z_188_0_1 0
Z_188_0_2 1
Z_188_0_3 0
Z_188_0_4 0
